482,342
563,388
966,314
947,213
994,305
570,64
573,193
776,593
830,700
1001,569
947,599
1117,723
755,634
844,86
963,18
874,140
630,81
681,886
524,891
532,700
561,406
494,311
705,389
909,480
681,-74
760,-97
382,818
311,526
628,433
596,433
